(set-logic HORN)
(set-info :source |
  Benchmark: test_safe_2019/adt/isnil.ml
  Generated by MoCHi
|)
(set-info :status unknown)
(declare-fun |fail_16[0:0]| ( Int) Bool)
(declare-fun |make_list[0:1][0:0]| ( Int  Int) Bool)
(declare-fun |make_list[0:0]| ( Int) Bool)
(assert (not (exists ((x0 Int)) (|fail_16[0:0]| x0))))
(assert (forall ((x0 Int)(x1 Int)(x2 Int)) (=> (and (|make_list[0:1][0:0]| x1 x2) (and (>= x1 1) (<= x2 0))) (|fail_16[0:0]| x0))))
(assert (forall ((x0 Int)(x1 Int)(var66 Int)(var65 Int)) (=> (and (|make_list[0:0]| x0) (and (|make_list[0:1][0:0]| var65 var66) (and (= x1 (+ 1 var66)) (and (not (= x0 0)) (= (+ 1 var65) x0))))) (|make_list[0:1][0:0]| x0 x1))))
(assert (forall ((x1 Int)(x0 Int)) (=> (and (|make_list[0:0]| x1) (and (= x0 0) (= x1 0))) (|make_list[0:1][0:0]| x1 x0))))
(assert (forall ((x0 Int)(x1 Int)) (=> (and (|make_list[0:0]| x1) (and (= (+ 1 x0) x1) (not (= x1 0)))) (|make_list[0:0]| x0))))
(assert (forall ((x0 Int)) (|make_list[0:0]| x0)))
(check-sat)
(get-model)
(exit)
